104285
1,10,29,64,73,45,46,54,80,62,70,14,67,76,26,36,66,71,20,9,77,58,17,56,51,72,81,60,47,49,34,57,43,3,12,23,55,42,25,15,69,78,41,52,39,63,83,8,28,79,61,6,35,30,2,38,16,27,7,33,11,75,82,40,74,32,22,44,68,59,53,4,50,65,31,24,19,5,48,21,18,37,13,1